p wcnf 1000 200 1
1 1 0
1 2 0
1 3 0
1 4 0
1 5 0
1 6 0
1 7 0
1 8 0
1 9 0
1 10 0
1 11 0
1 12 0
1 2 2 2 2 2 2 2 2 2 2 2 0
1 3 3 3 3 3 3 3 3 3 3 3 0
1 3 3 3 3 4 4 4 4 4 4 4 0
1 5 5 5 5 5 5 5 5 6 6 6 0
1 6 6 6 7 7 7 7 7 7 7 7 0
1 7 7 7 7 7 7 7 7 7 7 8 0
1 8 8 8 8 8 8 8 8 8 8 8 0
1 9 9 9 9 9 9 9 9 10 10 10 0
1 10 10 10 11 11 11 11 11 11 11 11 0
1 11 11 11 11 11 11 11 11 11 11 12 0
1 12 12 12 12 12 13 13 13 13 13 13 0
1 13 13 14 14 14 14 14 14 14 14 14 0
1 14 15 15 15 15 15 15 15 15 15 15 0
1 15 15 16 16 16 16 16 16 16 16 16 0
1 17 17 17 17 17 17 17 17 18 18 18 0
1 18 18 18 18 19 19 19 19 19 19 19 0
1 20 20 20 20 20 20 20 20 20 20 21 0
1 21 21 21 21 21 22 22 22 22 22 22 0
1 22 22 22 23 23 23 23 23 23 23 23 0
1 24 24 24 24 24 24 24 25 25 25 25 0
1 25 25 25 25 25 26 26 26 26 26 26 0
1 26 26 26 27 27 27 27 27 27 27 27 0
1 28 28 28 28 28 28 28 28 28 28 28 0
1 28 28 29 29 29 29 29 29 29 29 29 0
1 30 30 30 30 30 30 30 31 31 31 31 0
1 31 31 31 31 31 31 32 32 32 32 32 0
1 32 32 32 32 32 32 32 32 33 33 33 0
1 33 33 33 33 33 33 33 33 33 34 34 0
1 34 34 34 35 35 35 35 35 35 35 35 0
1 35 36 36 36 36 36 36 36 36 36 36 0
1 36 37 37 37 37 37 37 37 37 37 38 0
1 38 38 38 38 38 38 38 38 38 38 38 0
1 38 39 39 39 39 39 39 39 40 40 40 0
1 40 40 40 40 40 40 41 41 41 41 41 0
1 41 41 41 41 41 41 41 42 42 42 42 0
1 42 42 42 42 42 42 42 42 43 43 43 0
1 43 43 44 44 44 44 44 44 44 44 44 0
1 44 44 44 45 45 45 45 46 46 46 46 0
1 46 46 46 46 46 47 47 47 47 47 47 0
1 47 47 47 47 47 47 47 47 47 48 48 0
1 48 48 48 48 48 48 48 48 48 49 49 0
1 49 49 49 49 49 49 49 50 50 50 50 0
1 50 50 50 51 51 51 51 51 51 51 51 0
1 51 51 52 52 52 52 53 53 53 53 53 0
1 53 53 53 54 54 54 54 54 55 55 55 0
1 55 55 55 55 55 55 55 55 55 55 55 0
1 56 56 56 56 56 56 56 56 57 57 57 0
1 58 58 58 58 58 58 58 58 59 59 59 0
1 59 59 59 59 59 59 59 59 59 59 59 0
1 60 60 60 60 60 60 60 60 60 60 60 0
1 61 61 61 61 61 61 61 61 61 61 62 0
1 62 62 62 62 62 62 62 62 62 62 62 0
1 63 63 63 63 63 63 63 63 63 63 63 0
1 64 64 64 64 64 64 64 65 65 65 65 0
1 65 65 65 65 65 65 65 65 65 66 66 0
1 66 66 66 66 66 66 66 67 67 67 67 0
1 67 67 67 67 67 67 68 68 68 68 68 0
1 69 69 69 69 69 69 69 69 69 69 69 0
1 69 69 69 69 70 70 70 70 70 70 70 0
1 70 70 70 71 71 71 71 71 71 71 71 0
1 72 72 72 72 72 72 72 72 72 72 72 0
1 73 73 73 73 73 73 73 73 73 74 74 0
1 74 74 74 74 74 74 75 75 75 75 75 0
1 75 75 76 76 76 76 76 76 76 76 76 0
1 77 77 77 77 77 77 77 77 77 77 78 0
1 78 78 78 78 78 78 78 78 79 79 79 0
1 79 79 79 79 79 79 79 80 80 80 80 0
1 80 80 80 80 80 80 80 81 81 81 81 0
1 81 81 81 81 81 81 81 81 81 82 82 0
1 82 82 82 82 82 82 83 83 83 83 83 0
1 83 84 84 84 84 84 84 84 84 84 85 0
1 85 85 85 85 85 85 85 85 85 85 86 0
1 86 86 86 86 86 87 87 87 87 87 87 0
1 87 87 87 87 88 88 88 88 88 88 88 0
1 88 88 88 88 88 89 89 89 89 89 89 0
1 89 89 90 90 90 90 90 90 90 90 90 0
1 90 91 91 91 91 92 92 92 92 92 92 0
1 93 93 93 93 93 93 93 94 94 94 94 0
1 94 94 95 95 95 95 95 95 95 95 96 0
1 96 96 96 96 96 96 96 97 97 97 97 0
1 97 98 98 98 98 98 98 98 98 98 98 0
1 99 99 99 99 99 99 99 99 100 100 100 0
1 100 100 100 0
1  0
1 80 115 131 140 174 177 258 279 289 296 418 0
1 505 538 634 664 679 708 782 826 856 900 976 0
1  0
1  0
1 26 76 136 144 165 205 209 212 238 269 334 0
1 392 676 696 723 730 825 841 887 923 949 0
1  0
1 32 233 252 321 364 396 475 494 526 629 644 0
1 698 714 786 805 864 926 928 951 952 994 996 0
1  0
1 125 157 220 249 272 302 352 356 375 385 665 0
1 866 919 0
1  0
1 88 175 206 210 249 282 387 390 399 408 526 0
1 564 749 776 844 855 873 900 928 986 998 0
1  0
1 71 148 150 164 244 280 334 349 400 462 504 0
1 614 623 729 760 789 802 867 907 939 988 0
1  0
1 264 275 375 377 405 442 479 503 538 573 698 0
1 790 803 824 843 858 910 954 0
1  0
1 71 251 261 284 328 331 384 459 478 495 516 0
1 535 669 789 816 879 971 0
1  0
1 168 181 221 247 269 347 386 397 450 478 491 0
1 540 574 629 630 638 745 775 830 840 0
1  0
1 11 47 50 58 70 113 212 235 245 321 360 0
1 383 455 554 561 578 588 702 718 746 802 804 0
1 870 938 0
1  0
1 132 143 148 160 294 443 448 497 516 524 533 0
1 615 647 667 690 746 772 885 907 932 947 0
1  0
1 36 99 127 159 376 391 399 449 601 630 639 0
1 720 748 749 857 920 946 947 961 0
1  0
1 225 341 405 503 538 539 545 559 567 606 627 0
1 890 0
1  0
1 148 206 343 355 380 488 491 513 564 578 594 0
1 632 652 671 676 730 765 800 849 867 917 924 0
1 991 0
1  0
1 42 116 238 280 609 682 768 772 795 798 865 0
1 999 0
1  0
1 44 50 70 114 230 233 310 402 418 444 456 0
1 677 714 738 746 811 861 888 985 0
1  0
1 65 168 396 411 520 560 577 586 602 621 632 0
1 859 969 997 0
1  0
1 106 148 250 375 409 418 427 470 514 524 604 0
1 701 796 814 836 857 865 960 0
1  0
1 114 190 259 269 308 348 368 370 412 429 491 0
1 608 625 646 679 694 698 712 744 765 772 774 0
1  0
1  0
1 29 62 115 209 277 291 314 316 358 386 482 0
1 504 541 594 643 705 785 826 0
1  0
1 33 37 103 119 230 241 271 286 321 339 429 0
1 567 584 602 630 732 783 973 991 0
1  0
1 107 275 285 297 309 334 344 358 377 432 535 0
1 631 700 716 775 792 894 916 0
1  0
1 43 66 91 125 150 157 191 208 234 293 310 0
1 427 704 752 794 860 861 864 876 945 975 0
1  0
1 141 184 313 442 527 535 547 610 613 660 725 0
1  0
1  0
1 89 153 163 264 327 415 457 469 509 549 560 0
1 730 747 758 801 818 840 909 921 0
1  0
1 85 139 149 223 234 259 320 379 384 462 546 0
1 698 784 0
1  0
1 281 317 407 414 446 449 586 697 738 748 836 0
1 986 0
1  0
1 113 202 281 342 365 386 392 406 441 521 628 0
1 649 665 795 864 907 910 932 0
1  0
1 94 122 145 174 260 292 309 442 480 491 505 0
1 556 683 699 777 839 918 936 938 947 953 0
1  0
1 154 160 165 205 262 270 313 372 417 582 746 0
1 877 907 910 945 950 0
1  0
1 74 99 142 278 301 360 384 394 440 499 590 0
1 659 853 858 955 0
1  0
1 68 99 198 201 280 288 303 317 332 367 369 0
1 451 533 541 597 626 672 705 734 749 809 851 0
1  0
1  0
1 38 41 62 63 119 121 187 282 389 413 747 0
1 793 874 977 980 0
1  0
1 15 25 137 228 250 263 344 355 377 417 436 0
1 515 717 839 848 904 914 962 0
1  0
1 124 201 223 225 284 322 419 469 475 566 618 0
1 694 720 782 848 857 902 0
1  0
1 6 97 303 311 319 347 385 432 449 477 588 0
1 693 736 755 804 885 891 955 0
1  0
1 141 186 202 203 256 347 353 377 384 430 438 0
1 537 551 588 639 764 803 868 916 928 934 0
1  0
